750 : 18231 2849 
18231 : 13188 750 
14836 : 6154 13188 
2849 : 750 
19437 : 21975 
13188 : 14836 18231 
21975 : 13432 19437 
12065 : 21120 18615 
2172 : 21120 6154 
18615 : 12065 18895 
12658 : 21120 4300 
21120 : 2172 12065 12658 
4300 : 12658 17381 
17381 : 4300 22046 3177 
6154 : 2172 14836 
22046 : 17381 
18895 : 18615 
3177 : 17381 8753 
8753 : 3177 19515 
19515 : 8753 13432 
13432 : 19515 21975 
19437 2849 18895 2172 22046 
